(set-info :smt-lib-version 2.6)
(set-logic BV)
(set-info :source |
Generated by the tool Ultimate Automizer [1,2] which implements
an automata theoretic approach [3] to software verification.

This SMT script belongs to a set of SMT scripts that was generated by
applying Ultimate Automizer to benchmarks [4] from the SV-COMP 2023 [5,6].
This script may not contain all SMT commands that Ultimate Automizer
issued. In order to meet the restrictions for SMT-COMP benchmarks 
we dropped the commands for getting values (resp. models), 
unsatisfiable cores, and interpolants.

2023-03-21, Matthias Heizmann (heizmann@informatik.uni-freiburg.de)

[1] https://ultimate.informatik.uni-freiburg.de/automizer/
[2] Matthias Heizmann, Max Barth, Daniel Dietsch, Leonard Fichtner,
     Jochen Hoenicke, Dominik Klumpp, Mehdi Naouar, Tanja Schindler,
     Frank Schüssele, Andreas Podelski: Ultimate Automizer and the
     CommuHash Normal Form (Competition Contribution). TACAS 2023
[3] Matthias Heizmann, Jochen Hoenicke, Andreas Podelski: Software Model
     Checking for People Who Love Automata. CAV 2013
[4] https://github.com/sosy-lab/sv-benchmarks
[5] Dirk Beyer: Competition on Software Verification and
     Witness Validation: SV-COMP 2023.  TACAS 2023
[6] https://sv-comp.sosy-lab.org/2023/
|)
(set-info :license "https://creativecommons.org/licenses/by/4.0/")
(set-info :category "industrial")
(set-info :status unknown)
(declare-fun |ULTIMATE.start_main_~state_60~0#1| () (_ BitVec 8))
(declare-fun |ULTIMATE.start_main_~var_166~0#1| () (_ BitVec 8))
(declare-fun |ULTIMATE.start_main_~state_23~0#1| () (_ BitVec 8))
(declare-fun |ULTIMATE.start_main_~state_70~0#1| () (_ BitVec 8))
(declare-fun |ULTIMATE.start_main_~mask_SORT_1~0#1| () (_ BitVec 8))
(assert (or (forall ((|v_ULTIMATE.start_main_~var_541_arg_1~0#1_3| (_ BitVec 8)) (|v_ULTIMATE.start_main_~var_543_arg_1~0#1_3| (_ BitVec 8)) (|v_ULTIMATE.start_main_~var_552_arg_1~0#1_3| (_ BitVec 8)) (|v_ULTIMATE.start_main_~var_1005_arg_1~0#1_4| (_ BitVec 8)) (|v_ULTIMATE.start_main_~var_577_arg_1~0#1_3| (_ BitVec 8)) (|ULTIMATE.start_main_~input_157~0#1| (_ BitVec 8)) (|v_ULTIMATE.start_main_~var_556_arg_1~0#1_3| (_ BitVec 8)) (|v_ULTIMATE.start_main_~var_578_arg_1~0#1_3| (_ BitVec 8)) (|v_ULTIMATE.start_main_~var_579_arg_1~0#1_3| (_ BitVec 8)) (|v_ULTIMATE.start_main_~var_829_arg_0~0#1_3| (_ BitVec 8)) (|v_ULTIMATE.start_main_~var_557_arg_1~0#1_3| (_ BitVec 8)) (|v_ULTIMATE.start_main_~var_895_arg_1~0#1_3| (_ BitVec 8)) (|ULTIMATE.start_main_~input_334~0#1| (_ BitVec 8)) (|ULTIMATE.start_main_~input_148~0#1| (_ BitVec 8)) (|v_ULTIMATE.start_main_~var_590_arg_0~0#1_3| (_ BitVec 8)) (|v_ULTIMATE.start_main_~var_1072_arg_1~0#1_3| (_ BitVec 8)) (|v_ULTIMATE.start_main_~var_1135_arg_1~0#1_3| (_ BitVec 8)) (|ULTIMATE.start_main_~input_154~0#1| (_ BitVec 8)) (|v_ULTIMATE.start_main_~var_1112_arg_0~0#1_3| (_ BitVec 8)) (|v_ULTIMATE.start_main_~var_1121_arg_0~0#1_3| (_ BitVec 8)) (|v_ULTIMATE.start_main_~var_1132_arg_0~0#1_3| (_ BitVec 8)) (|ULTIMATE.start_main_~input_153~0#1| (_ BitVec 8)) (|ULTIMATE.start_main_~input_188~0#1| (_ BitVec 8)) (|v_ULTIMATE.start_main_~var_553_arg_1~0#1_3| (_ BitVec 8)) (|v_ULTIMATE.start_main_~var_1138_arg_1~0#1_3| (_ BitVec 8)) (|v_ULTIMATE.start_main_~var_828_arg_1~0#1_3| (_ BitVec 8)) (|v_ULTIMATE.start_main_~var_599_arg_0~0#1_3| (_ BitVec 8)) (|v_ULTIMATE.start_main_~var_576_arg_0~0#1_3| (_ BitVec 8)) (|ULTIMATE.start_main_~input_341~0#1| (_ BitVec 8)) (|v_ULTIMATE.start_main_~var_837_arg_1~0#1_3| (_ BitVec 8)) (|v_ULTIMATE.start_main_~var_831_arg_0~0#1_3| (_ BitVec 8)) (|v_ULTIMATE.start_main_~var_551_arg_0~0#1_3| (_ BitVec 8)) (|v_ULTIMATE.start_main_~state_80~0#1_7| (_ BitVec 8)) (|ULTIMATE.start_main_~input_133~0#1| (_ BitVec 8)) (|v_ULTIMATE.start_main_~var_1136_arg_0~0#1_3| (_ BitVec 8)) (|v_ULTIMATE.start_main_~var_539_arg_1~0#1_3| (_ BitVec 8)) (|v_ULTIMATE.start_main_~var_836_arg_1~0#1_4| (_ BitVec 8)) (|v_ULTIMATE.start_main_~var_1115_arg_0~0#1_3| (_ BitVec 8)) (|v_ULTIMATE.start_main_~var_1127_arg_0~0#1_3| (_ BitVec 8)) (|v_ULTIMATE.start_main_~var_835_arg_1~0#1_3| (_ BitVec 8)) (|v_ULTIMATE.start_main_~var_1140_arg_1~0#1_4| (_ BitVec 8)) (|v_ULTIMATE.start_main_~var_555_arg_0~0#1_3| (_ BitVec 8))) (= ((_ extract 7 0) (let ((.cse1 ((_ zero_extend 24) |ULTIMATE.start_main_~mask_SORT_1~0#1|))) (bvand ((_ zero_extend 24) ((_ extract 7 0) (let ((.cse0 ((_ zero_extend 24) |v_ULTIMATE.start_main_~state_80~0#1_7|))) (bvand .cse0 ((_ zero_extend 24) ((_ extract 7 0) (bvand ((_ zero_extend 24) ((_ extract 7 0) (bvnot ((_ zero_extend 24) ((_ extract 7 0) (bvand ((_ zero_extend 24) ((_ extract 7 0) (bvnot ((_ zero_extend 24) ((_ extract 7 0) (bvand ((_ zero_extend 24) ((_ extract 7 0) (bvand ((_ zero_extend 24) ((_ extract 7 0) (bvand ((_ zero_extend 24) ((_ extract 7 0) (let ((.cse3 ((_ zero_extend 24) ((_ extract 7 0) (bvand ((_ zero_extend 24) ((_ extract 7 0) (bvnot ((_ zero_extend 24) |ULTIMATE.start_main_~input_153~0#1|)))) .cse1)))) (.cse2 ((_ zero_extend 24) ((_ extract 7 0) (bvand ((_ zero_extend 24) ((_ extract 7 0) (bvnot ((_ zero_extend 24) |ULTIMATE.start_main_~input_148~0#1|)))) .cse1))))) (bvand ((_ zero_extend 24) ((_ extract 7 0) (bvand ((_ zero_extend 24) ((_ extract 7 0) (bvand ((_ zero_extend 24) ((_ extract 7 0) (bvand ((_ zero_extend 24) ((_ extract 7 0) (bvand ((_ zero_extend 24) |v_ULTIMATE.start_main_~var_1005_arg_1~0#1_4|) ((_ zero_extend 24) ((_ extract 7 0) (bvand ((_ zero_extend 24) ((_ extract 7 0) (bvand ((_ zero_extend 24) |v_ULTIMATE.start_main_~var_895_arg_1~0#1_3|) ((_ zero_extend 24) ((_ extract 7 0) (bvand ((_ zero_extend 24) ((_ extract 7 0) (bvand ((_ zero_extend 24) ((_ extract 7 0) (bvand ((_ zero_extend 24) ((_ extract 7 0) (bvor ((_ zero_extend 24) ((_ extract 7 0) (bvand .cse1 ((_ zero_extend 24) ((_ extract 7 0) (bvand ((_ zero_extend 24) |v_ULTIMATE.start_main_~var_837_arg_1~0#1_3|) ((_ zero_extend 24) ((_ extract 7 0) (bvand .cse1 ((_ zero_extend 24) ((_ extract 7 0) (bvand ((_ zero_extend 24) |v_ULTIMATE.start_main_~var_836_arg_1~0#1_4|) ((_ zero_extend 24) |ULTIMATE.start_main_~state_70~0#1|))))))))))))) .cse2))) .cse1))) ((_ zero_extend 24) ((_ extract 7 0) (bvand ((_ zero_extend 24) ((_ extract 7 0) (bvand ((_ zero_extend 24) ((_ extract 7 0) (bvand .cse1 ((_ zero_extend 24) ((_ extract 7 0) (bvand ((_ zero_extend 24) |v_ULTIMATE.start_main_~var_831_arg_0~0#1_3|) ((_ zero_extend 24) ((_ extract 7 0) (bvand ((_ zero_extend 24) ((_ extract 7 0) (bvor ((_ zero_extend 24) ((_ extract 7 0) (bvand .cse1 ((_ zero_extend 24) ((_ extract 7 0) (bvand ((_ zero_extend 24) ((_ extract 7 0) (bvand ((_ zero_extend 24) ((_ extract 7 0) (bvand ((_ zero_extend 24) |v_ULTIMATE.start_main_~var_828_arg_1~0#1_3|) ((_ zero_extend 24) ((_ extract 7 0) (bvand (_ bv255 32) .cse1)))))) .cse1))) ((_ zero_extend 24) |v_ULTIMATE.start_main_~var_829_arg_0~0#1_3|))))))) .cse3))) .cse1))))))))) ((_ zero_extend 24) |v_ULTIMATE.start_main_~var_835_arg_1~0#1_3|)))) .cse1)))))) .cse1)))))) .cse1)))))) .cse1))) ((_ zero_extend 24) |v_ULTIMATE.start_main_~var_1072_arg_1~0#1_3|)))) .cse1))) ((_ zero_extend 24) ((_ extract 7 0) (bvand ((_ zero_extend 24) ((_ extract 7 0) (bvand ((_ zero_extend 24) ((_ extract 7 0) (bvand ((_ zero_extend 24) ((_ extract 7 0) (bvand ((_ zero_extend 24) ((_ extract 7 0) (bvand ((_ zero_extend 24) ((_ extract 7 0) (bvnot ((_ zero_extend 24) ((_ extract 7 0) (bvand ((_ zero_extend 24) ((_ extract 7 0) (bvor ((_ zero_extend 24) ((_ extract 7 0) (bvand ((_ zero_extend 24) ((_ extract 7 0) (bvor ((_ zero_extend 24) |v_ULTIMATE.start_main_~var_1132_arg_0~0#1_3|) ((_ zero_extend 24) ((_ extract 7 0) (bvand ((_ zero_extend 24) ((_ extract 7 0) (bvand .cse0 ((_ zero_extend 24) ((_ extract 7 0) (bvand .cse1 ((_ zero_extend 24) ((_ extract 7 0) (let ((.cse8 ((_ zero_extend 24) |ULTIMATE.start_main_~input_157~0#1|))) (bvor ((_ zero_extend 24) ((_ extract 7 0) (bvand ((_ zero_extend 24) ((_ extract 7 0) (bvor ((_ zero_extend 24) |v_ULTIMATE.start_main_~var_1127_arg_0~0#1_3|) ((_ zero_extend 24) ((_ extract 7 0) (bvand ((_ zero_extend 24) ((_ extract 7 0) (let ((.cse9 ((_ zero_extend 24) |ULTIMATE.start_main_~input_154~0#1|))) (bvor ((_ zero_extend 24) ((_ extract 7 0) (bvand ((_ zero_extend 24) ((_ extract 7 0) (bvor ((_ zero_extend 24) |v_ULTIMATE.start_main_~var_1121_arg_0~0#1_3|) ((_ zero_extend 24) ((_ extract 7 0) (bvand ((_ zero_extend 24) ((_ extract 7 0) (let ((.cse5 ((_ zero_extend 24) |ULTIMATE.start_main_~input_334~0#1|))) (bvor ((_ zero_extend 24) ((_ extract 7 0) (bvand ((_ zero_extend 24) ((_ extract 7 0) (bvor ((_ zero_extend 24) |v_ULTIMATE.start_main_~var_1115_arg_0~0#1_3|) ((_ zero_extend 24) ((_ extract 7 0) (bvand ((_ zero_extend 24) ((_ extract 7 0) (bvor ((_ zero_extend 24) ((_ extract 7 0) (bvand ((_ zero_extend 24) ((_ extract 7 0) (let ((.cse6 ((_ zero_extend 24) |ULTIMATE.start_main_~input_133~0#1|)) (.cse7 ((_ zero_extend 24) |ULTIMATE.start_main_~input_341~0#1|))) (bvor ((_ zero_extend 24) ((_ extract 7 0) (bvand ((_ zero_extend 24) ((_ extract 7 0) (let ((.cse4 ((_ zero_extend 24) |ULTIMATE.start_main_~input_188~0#1|))) (bvor ((_ zero_extend 24) ((_ extract 7 0) (bvand ((_ zero_extend 24) ((_ extract 7 0) (bvor ((_ zero_extend 24) |v_ULTIMATE.start_main_~var_553_arg_1~0#1_3|) ((_ zero_extend 24) ((_ extract 7 0) (bvand ((_ zero_extend 24) ((_ extract 7 0) (bvor ((_ zero_extend 24) ((_ extract 7 0) (bvand ((_ zero_extend 24) ((_ extract 7 0) (bvor ((_ zero_extend 24) |v_ULTIMATE.start_main_~var_551_arg_0~0#1_3|) .cse4))) .cse1))) ((_ zero_extend 24) |v_ULTIMATE.start_main_~var_552_arg_1~0#1_3|)))) .cse1)))))) .cse1))) ((_ zero_extend 24) ((_ extract 7 0) (bvand ((_ zero_extend 24) ((_ extract 7 0) (bvand ((_ zero_extend 24) ((_ extract 7 0) (bvand ((_ zero_extend 24) ((_ extract 7 0) (bvand ((_ zero_extend 24) ((_ extract 7 0) (bvand .cse1 ((_ zero_extend 24) ((_ extract 7 0) (bvand ((_ zero_extend 24) ((_ extract 7 0) (bvand ((_ zero_extend 24) ((_ extract 7 0) (bvnot .cse5))) .cse1))) ((_ zero_extend 24) ((_ extract 7 0) (bvand ((_ zero_extend 24) ((_ extract 7 0) (bvor .cse6 ((_ zero_extend 24) ((_ extract 7 0) (bvand ((_ zero_extend 24) ((_ extract 7 0) (bvand ((_ zero_extend 24) ((_ extract 7 0) (bvand ((_ zero_extend 24) ((_ extract 7 0) (bvnot .cse4))) .cse1))) ((_ zero_extend 24) ((_ extract 7 0) (bvand ((_ zero_extend 24) ((_ extract 7 0) (bvor ((_ zero_extend 24) |v_ULTIMATE.start_main_~var_543_arg_1~0#1_3|) ((_ zero_extend 24) ((_ extract 7 0) (bvand ((_ zero_extend 24) ((_ extract 7 0) (bvand ((_ zero_extend 24) ((_ extract 7 0) (bvand ((_ zero_extend 24) ((_ extract 7 0) (bvnot .cse7))) .cse1))) ((_ zero_extend 24) ((_ extract 7 0) (bvand .cse1 ((_ zero_extend 24) ((_ extract 7 0) (bvor ((_ zero_extend 24) |v_ULTIMATE.start_main_~var_541_arg_1~0#1_3|) ((_ zero_extend 24) ((_ extract 7 0) (bvand ((_ zero_extend 24) ((_ extract 7 0) (bvor ((_ zero_extend 24) |v_ULTIMATE.start_main_~var_539_arg_1~0#1_3|) ((_ zero_extend 24) ((_ extract 7 0) (bvand ((_ zero_extend 24) ((_ extract 7 0) (bvnot ((_ zero_extend 24) |ULTIMATE.start_main_~state_60~0#1|)))) .cse1)))))) .cse1)))))))))))) .cse1)))))) .cse1)))))) .cse1)))))) .cse1))))))))) ((_ zero_extend 24) ((_ extract 7 0) (bvand ((_ zero_extend 24) ((_ extract 7 0) (bvnot .cse8))) .cse1)))))) .cse1))) .cse3))) .cse1))))))) .cse1))) ((_ zero_extend 24) ((_ extract 7 0) (bvand ((_ zero_extend 24) ((_ extract 7 0) (bvand ((_ zero_extend 24) ((_ extract 7 0) (bvand ((_ zero_extend 24) ((_ extract 7 0) (bvnot .cse6))) .cse1))) ((_ zero_extend 24) ((_ extract 7 0) (bvand ((_ zero_extend 24) ((_ extract 7 0) (bvor ((_ zero_extend 24) ((_ extract 7 0) (bvand ((_ zero_extend 24) ((_ extract 7 0) (bvor ((_ zero_extend 24) ((_ extract 7 0) (bvand ((_ zero_extend 24) ((_ extract 7 0) (bvor .cse7 ((_ zero_extend 24) |v_ULTIMATE.start_main_~var_555_arg_0~0#1_3|)))) .cse1))) ((_ zero_extend 24) |v_ULTIMATE.start_main_~var_556_arg_1~0#1_3|)))) .cse1))) ((_ zero_extend 24) |v_ULTIMATE.start_main_~var_557_arg_1~0#1_3|)))) .cse1)))))) .cse1))))))) .cse1))) ((_ zero_extend 24) |v_ULTIMATE.start_main_~var_1112_arg_0~0#1_3|)))) .cse1)))))) .cse1))) ((_ zero_extend 24) ((_ extract 7 0) (bvand ((_ zero_extend 24) ((_ extract 7 0) (bvand ((_ zero_extend 24) ((_ extract 7 0) (bvand .cse1 ((_ zero_extend 24) ((_ extract 7 0) (bvand ((_ zero_extend 24) ((_ extract 7 0) (bvand ((_ zero_extend 24) ((_ extract 7 0) (bvor ((_ zero_extend 24) |v_ULTIMATE.start_main_~var_579_arg_1~0#1_3|) ((_ zero_extend 24) ((_ extract 7 0) (bvand ((_ zero_extend 24) ((_ extract 7 0) (bvor ((_ zero_extend 24) ((_ extract 7 0) (bvand ((_ zero_extend 24) ((_ extract 7 0) (bvor ((_ zero_extend 24) ((_ extract 7 0) (bvand ((_ zero_extend 24) ((_ extract 7 0) (bvor ((_ zero_extend 24) |v_ULTIMATE.start_main_~var_576_arg_0~0#1_3|) .cse5))) .cse1))) ((_ zero_extend 24) |v_ULTIMATE.start_main_~var_577_arg_1~0#1_3|)))) .cse1))) ((_ zero_extend 24) |v_ULTIMATE.start_main_~var_578_arg_1~0#1_3|)))) .cse1)))))) .cse1))) ((_ zero_extend 24) ((_ extract 7 0) (bvand ((_ zero_extend 24) ((_ extract 7 0) (bvnot .cse9))) .cse1))))))))) .cse2))) .cse1))))))) .cse1)))))) .cse1))) ((_ zero_extend 24) ((_ extract 7 0) (bvand ((_ zero_extend 24) ((_ extract 7 0) (bvor ((_ zero_extend 24) |v_ULTIMATE.start_main_~var_590_arg_0~0#1_3|) .cse9))) .cse1))))))) .cse1)))))) .cse1))) ((_ zero_extend 24) ((_ extract 7 0) (bvand ((_ zero_extend 24) ((_ extract 7 0) (bvor .cse8 ((_ zero_extend 24) |v_ULTIMATE.start_main_~var_599_arg_0~0#1_3|)))) .cse1))))))))))))) .cse1)))))) .cse1))) ((_ zero_extend 24) |v_ULTIMATE.start_main_~var_1135_arg_1~0#1_3|)))) .cse1)))))) .cse1))) ((_ zero_extend 24) |v_ULTIMATE.start_main_~var_1136_arg_0~0#1_3|)))) .cse1))) ((_ zero_extend 24) |v_ULTIMATE.start_main_~var_1138_arg_1~0#1_3|)))) .cse1))))))) .cse1))) ((_ zero_extend 24) |v_ULTIMATE.start_main_~var_1140_arg_1~0#1_4|)))) .cse1)))))) .cse1)))))) .cse1))))))) .cse1))) (_ bv0 8))) (= ((_ zero_extend 24) |ULTIMATE.start_main_~state_23~0#1|) ((_ zero_extend 24) |ULTIMATE.start_main_~var_166~0#1|))))
(assert (not (forall ((|v_ULTIMATE.start_main_~var_541_arg_1~0#1_3| (_ BitVec 8)) (|v_ULTIMATE.start_main_~var_543_arg_1~0#1_3| (_ BitVec 8)) (|v_ULTIMATE.start_main_~var_552_arg_1~0#1_3| (_ BitVec 8)) (|v_ULTIMATE.start_main_~var_1005_arg_1~0#1_4| (_ BitVec 8)) (|v_ULTIMATE.start_main_~var_577_arg_1~0#1_3| (_ BitVec 8)) (|ULTIMATE.start_main_~input_157~0#1| (_ BitVec 8)) (|v_ULTIMATE.start_main_~var_556_arg_1~0#1_3| (_ BitVec 8)) (|v_ULTIMATE.start_main_~var_578_arg_1~0#1_3| (_ BitVec 8)) (|v_ULTIMATE.start_main_~var_579_arg_1~0#1_3| (_ BitVec 8)) (|v_ULTIMATE.start_main_~var_829_arg_0~0#1_3| (_ BitVec 8)) (|v_ULTIMATE.start_main_~var_557_arg_1~0#1_3| (_ BitVec 8)) (|v_ULTIMATE.start_main_~var_895_arg_1~0#1_3| (_ BitVec 8)) (|ULTIMATE.start_main_~input_334~0#1| (_ BitVec 8)) (|ULTIMATE.start_main_~input_148~0#1| (_ BitVec 8)) (|v_ULTIMATE.start_main_~var_590_arg_0~0#1_3| (_ BitVec 8)) (|v_ULTIMATE.start_main_~var_1072_arg_1~0#1_3| (_ BitVec 8)) (|v_ULTIMATE.start_main_~var_1135_arg_1~0#1_3| (_ BitVec 8)) (|ULTIMATE.start_main_~input_154~0#1| (_ BitVec 8)) (|v_ULTIMATE.start_main_~var_1112_arg_0~0#1_3| (_ BitVec 8)) (|v_ULTIMATE.start_main_~var_1121_arg_0~0#1_3| (_ BitVec 8)) (|v_ULTIMATE.start_main_~var_1132_arg_0~0#1_3| (_ BitVec 8)) (|ULTIMATE.start_main_~input_153~0#1| (_ BitVec 8)) (|ULTIMATE.start_main_~input_188~0#1| (_ BitVec 8)) (|v_ULTIMATE.start_main_~var_553_arg_1~0#1_3| (_ BitVec 8)) (|v_ULTIMATE.start_main_~var_1138_arg_1~0#1_3| (_ BitVec 8)) (|v_ULTIMATE.start_main_~var_828_arg_1~0#1_3| (_ BitVec 8)) (|v_ULTIMATE.start_main_~var_599_arg_0~0#1_3| (_ BitVec 8)) (|v_ULTIMATE.start_main_~var_576_arg_0~0#1_3| (_ BitVec 8)) (|ULTIMATE.start_main_~input_341~0#1| (_ BitVec 8)) (|v_ULTIMATE.start_main_~var_837_arg_1~0#1_3| (_ BitVec 8)) (|v_ULTIMATE.start_main_~var_831_arg_0~0#1_3| (_ BitVec 8)) (|v_ULTIMATE.start_main_~var_551_arg_0~0#1_3| (_ BitVec 8)) (|v_ULTIMATE.start_main_~state_80~0#1_7| (_ BitVec 8)) (|ULTIMATE.start_main_~input_133~0#1| (_ BitVec 8)) (|v_ULTIMATE.start_main_~var_1136_arg_0~0#1_3| (_ BitVec 8)) (|v_ULTIMATE.start_main_~var_539_arg_1~0#1_3| (_ BitVec 8)) (|v_ULTIMATE.start_main_~var_836_arg_1~0#1_4| (_ BitVec 8)) (|v_ULTIMATE.start_main_~var_1115_arg_0~0#1_3| (_ BitVec 8)) (|v_ULTIMATE.start_main_~var_1127_arg_0~0#1_3| (_ BitVec 8)) (|v_ULTIMATE.start_main_~var_835_arg_1~0#1_3| (_ BitVec 8)) (|v_ULTIMATE.start_main_~var_1140_arg_1~0#1_4| (_ BitVec 8)) (|v_ULTIMATE.start_main_~var_555_arg_0~0#1_3| (_ BitVec 8))) (= ((_ extract 7 0) (let ((.cse1 ((_ zero_extend 24) |ULTIMATE.start_main_~mask_SORT_1~0#1|))) (bvand ((_ zero_extend 24) ((_ extract 7 0) (let ((.cse0 ((_ zero_extend 24) |v_ULTIMATE.start_main_~state_80~0#1_7|))) (bvand .cse0 ((_ zero_extend 24) ((_ extract 7 0) (bvand ((_ zero_extend 24) ((_ extract 7 0) (bvnot ((_ zero_extend 24) ((_ extract 7 0) (bvand ((_ zero_extend 24) ((_ extract 7 0) (bvnot ((_ zero_extend 24) ((_ extract 7 0) (bvand ((_ zero_extend 24) ((_ extract 7 0) (bvand ((_ zero_extend 24) ((_ extract 7 0) (bvand ((_ zero_extend 24) ((_ extract 7 0) (let ((.cse2 ((_ zero_extend 24) ((_ extract 7 0) (bvand ((_ zero_extend 24) ((_ extract 7 0) (bvnot ((_ zero_extend 24) |ULTIMATE.start_main_~input_153~0#1|)))) .cse1)))) (.cse3 ((_ zero_extend 24) ((_ extract 7 0) (bvand ((_ zero_extend 24) ((_ extract 7 0) (bvnot ((_ zero_extend 24) |ULTIMATE.start_main_~input_148~0#1|)))) .cse1))))) (bvand ((_ zero_extend 24) ((_ extract 7 0) (bvand ((_ zero_extend 24) ((_ extract 7 0) (bvand ((_ zero_extend 24) ((_ extract 7 0) (bvand ((_ zero_extend 24) ((_ extract 7 0) (bvand ((_ zero_extend 24) |v_ULTIMATE.start_main_~var_1005_arg_1~0#1_4|) ((_ zero_extend 24) ((_ extract 7 0) (bvand .cse1 ((_ zero_extend 24) ((_ extract 7 0) (bvand ((_ zero_extend 24) ((_ extract 7 0) (bvand ((_ zero_extend 24) ((_ extract 7 0) (bvand ((_ zero_extend 24) ((_ extract 7 0) (bvand ((_ zero_extend 24) ((_ extract 7 0) (bvand ((_ zero_extend 24) ((_ extract 7 0) (bvand ((_ zero_extend 24) ((_ extract 7 0) (bvand ((_ zero_extend 24) |v_ULTIMATE.start_main_~var_831_arg_0~0#1_3|) ((_ zero_extend 24) ((_ extract 7 0) (bvand ((_ zero_extend 24) ((_ extract 7 0) (bvor .cse2 ((_ zero_extend 24) ((_ extract 7 0) (bvand .cse1 ((_ zero_extend 24) ((_ extract 7 0) (bvand ((_ zero_extend 24) ((_ extract 7 0) (bvand ((_ zero_extend 24) ((_ extract 7 0) (bvand ((_ zero_extend 24) ((_ extract 7 0) (bvand (_ bv254 32) .cse1))) ((_ zero_extend 24) |v_ULTIMATE.start_main_~var_828_arg_1~0#1_3|)))) .cse1))) ((_ zero_extend 24) |v_ULTIMATE.start_main_~var_829_arg_0~0#1_3|)))))))))) .cse1)))))) .cse1))) ((_ zero_extend 24) |v_ULTIMATE.start_main_~var_835_arg_1~0#1_3|)))) .cse1))) ((_ zero_extend 24) ((_ extract 7 0) (bvand ((_ zero_extend 24) ((_ extract 7 0) (bvor ((_ zero_extend 24) ((_ extract 7 0) (bvand .cse1 ((_ zero_extend 24) ((_ extract 7 0) (bvand ((_ zero_extend 24) |v_ULTIMATE.start_main_~var_837_arg_1~0#1_3|) ((_ zero_extend 24) ((_ extract 7 0) (bvand .cse1 ((_ zero_extend 24) ((_ extract 7 0) (bvand ((_ zero_extend 24) |v_ULTIMATE.start_main_~var_836_arg_1~0#1_4|) ((_ zero_extend 24) |ULTIMATE.start_main_~state_70~0#1|))))))))))))) .cse3))) .cse1)))))) .cse1))) ((_ zero_extend 24) |v_ULTIMATE.start_main_~var_895_arg_1~0#1_3|)))))))))) .cse1))) ((_ zero_extend 24) |v_ULTIMATE.start_main_~var_1072_arg_1~0#1_3|)))) .cse1))) ((_ zero_extend 24) ((_ extract 7 0) (bvand ((_ zero_extend 24) ((_ extract 7 0) (bvand ((_ zero_extend 24) ((_ extract 7 0) (bvand ((_ zero_extend 24) ((_ extract 7 0) (bvand ((_ zero_extend 24) ((_ extract 7 0) (bvand ((_ zero_extend 24) ((_ extract 7 0) (bvnot ((_ zero_extend 24) ((_ extract 7 0) (bvand ((_ zero_extend 24) ((_ extract 7 0) (bvor ((_ zero_extend 24) ((_ extract 7 0) (bvand ((_ zero_extend 24) ((_ extract 7 0) (bvor ((_ zero_extend 24) |v_ULTIMATE.start_main_~var_1132_arg_0~0#1_3|) ((_ zero_extend 24) ((_ extract 7 0) (bvand ((_ zero_extend 24) ((_ extract 7 0) (bvand .cse0 ((_ zero_extend 24) ((_ extract 7 0) (bvand .cse1 ((_ zero_extend 24) ((_ extract 7 0) (let ((.cse8 ((_ zero_extend 24) |ULTIMATE.start_main_~input_157~0#1|))) (bvor ((_ zero_extend 24) ((_ extract 7 0) (bvand ((_ zero_extend 24) ((_ extract 7 0) (bvor ((_ zero_extend 24) |v_ULTIMATE.start_main_~var_1127_arg_0~0#1_3|) ((_ zero_extend 24) ((_ extract 7 0) (bvand ((_ zero_extend 24) ((_ extract 7 0) (let ((.cse9 ((_ zero_extend 24) |ULTIMATE.start_main_~input_154~0#1|))) (bvor ((_ zero_extend 24) ((_ extract 7 0) (bvand ((_ zero_extend 24) ((_ extract 7 0) (bvor ((_ zero_extend 24) |v_ULTIMATE.start_main_~var_1121_arg_0~0#1_3|) ((_ zero_extend 24) ((_ extract 7 0) (bvand ((_ zero_extend 24) ((_ extract 7 0) (let ((.cse5 ((_ zero_extend 24) |ULTIMATE.start_main_~input_334~0#1|))) (bvor ((_ zero_extend 24) ((_ extract 7 0) (bvand ((_ zero_extend 24) ((_ extract 7 0) (bvor ((_ zero_extend 24) |v_ULTIMATE.start_main_~var_1115_arg_0~0#1_3|) ((_ zero_extend 24) ((_ extract 7 0) (bvand ((_ zero_extend 24) ((_ extract 7 0) (bvor ((_ zero_extend 24) ((_ extract 7 0) (bvand ((_ zero_extend 24) ((_ extract 7 0) (let ((.cse6 ((_ zero_extend 24) |ULTIMATE.start_main_~input_133~0#1|)) (.cse7 ((_ zero_extend 24) |ULTIMATE.start_main_~input_341~0#1|))) (bvor ((_ zero_extend 24) ((_ extract 7 0) (bvand ((_ zero_extend 24) ((_ extract 7 0) (let ((.cse4 ((_ zero_extend 24) |ULTIMATE.start_main_~input_188~0#1|))) (bvor ((_ zero_extend 24) ((_ extract 7 0) (bvand ((_ zero_extend 24) ((_ extract 7 0) (bvor ((_ zero_extend 24) |v_ULTIMATE.start_main_~var_553_arg_1~0#1_3|) ((_ zero_extend 24) ((_ extract 7 0) (bvand ((_ zero_extend 24) ((_ extract 7 0) (bvor ((_ zero_extend 24) ((_ extract 7 0) (bvand ((_ zero_extend 24) ((_ extract 7 0) (bvor ((_ zero_extend 24) |v_ULTIMATE.start_main_~var_551_arg_0~0#1_3|) .cse4))) .cse1))) ((_ zero_extend 24) |v_ULTIMATE.start_main_~var_552_arg_1~0#1_3|)))) .cse1)))))) .cse1))) ((_ zero_extend 24) ((_ extract 7 0) (bvand ((_ zero_extend 24) ((_ extract 7 0) (bvand ((_ zero_extend 24) ((_ extract 7 0) (bvand ((_ zero_extend 24) ((_ extract 7 0) (bvand ((_ zero_extend 24) ((_ extract 7 0) (bvand .cse1 ((_ zero_extend 24) ((_ extract 7 0) (bvand ((_ zero_extend 24) ((_ extract 7 0) (bvand ((_ zero_extend 24) ((_ extract 7 0) (bvnot .cse5))) .cse1))) ((_ zero_extend 24) ((_ extract 7 0) (bvand ((_ zero_extend 24) ((_ extract 7 0) (bvor .cse6 ((_ zero_extend 24) ((_ extract 7 0) (bvand ((_ zero_extend 24) ((_ extract 7 0) (bvand ((_ zero_extend 24) ((_ extract 7 0) (bvand ((_ zero_extend 24) ((_ extract 7 0) (bvnot .cse4))) .cse1))) ((_ zero_extend 24) ((_ extract 7 0) (bvand ((_ zero_extend 24) ((_ extract 7 0) (bvor ((_ zero_extend 24) |v_ULTIMATE.start_main_~var_543_arg_1~0#1_3|) ((_ zero_extend 24) ((_ extract 7 0) (bvand ((_ zero_extend 24) ((_ extract 7 0) (bvand ((_ zero_extend 24) ((_ extract 7 0) (bvand ((_ zero_extend 24) ((_ extract 7 0) (bvnot .cse7))) .cse1))) ((_ zero_extend 24) ((_ extract 7 0) (bvand .cse1 ((_ zero_extend 24) ((_ extract 7 0) (bvor ((_ zero_extend 24) |v_ULTIMATE.start_main_~var_541_arg_1~0#1_3|) ((_ zero_extend 24) ((_ extract 7 0) (bvand ((_ zero_extend 24) ((_ extract 7 0) (bvor ((_ zero_extend 24) |v_ULTIMATE.start_main_~var_539_arg_1~0#1_3|) ((_ zero_extend 24) ((_ extract 7 0) (bvand ((_ zero_extend 24) ((_ extract 7 0) (bvnot ((_ zero_extend 24) |ULTIMATE.start_main_~state_60~0#1|)))) .cse1)))))) .cse1)))))))))))) .cse1)))))) .cse1)))))) .cse1)))))) .cse1))))))))) ((_ zero_extend 24) ((_ extract 7 0) (bvand ((_ zero_extend 24) ((_ extract 7 0) (bvnot .cse8))) .cse1)))))) .cse1))) .cse2))) .cse1))))))) .cse1))) ((_ zero_extend 24) ((_ extract 7 0) (bvand ((_ zero_extend 24) ((_ extract 7 0) (bvand ((_ zero_extend 24) ((_ extract 7 0) (bvand ((_ zero_extend 24) ((_ extract 7 0) (bvnot .cse6))) .cse1))) ((_ zero_extend 24) ((_ extract 7 0) (bvand ((_ zero_extend 24) ((_ extract 7 0) (bvor ((_ zero_extend 24) ((_ extract 7 0) (bvand ((_ zero_extend 24) ((_ extract 7 0) (bvor ((_ zero_extend 24) ((_ extract 7 0) (bvand ((_ zero_extend 24) ((_ extract 7 0) (bvor .cse7 ((_ zero_extend 24) |v_ULTIMATE.start_main_~var_555_arg_0~0#1_3|)))) .cse1))) ((_ zero_extend 24) |v_ULTIMATE.start_main_~var_556_arg_1~0#1_3|)))) .cse1))) ((_ zero_extend 24) |v_ULTIMATE.start_main_~var_557_arg_1~0#1_3|)))) .cse1)))))) .cse1))))))) .cse1))) ((_ zero_extend 24) |v_ULTIMATE.start_main_~var_1112_arg_0~0#1_3|)))) .cse1)))))) .cse1))) ((_ zero_extend 24) ((_ extract 7 0) (bvand ((_ zero_extend 24) ((_ extract 7 0) (bvand ((_ zero_extend 24) ((_ extract 7 0) (bvand .cse1 ((_ zero_extend 24) ((_ extract 7 0) (bvand ((_ zero_extend 24) ((_ extract 7 0) (bvand ((_ zero_extend 24) ((_ extract 7 0) (bvor ((_ zero_extend 24) |v_ULTIMATE.start_main_~var_579_arg_1~0#1_3|) ((_ zero_extend 24) ((_ extract 7 0) (bvand ((_ zero_extend 24) ((_ extract 7 0) (bvor ((_ zero_extend 24) ((_ extract 7 0) (bvand ((_ zero_extend 24) ((_ extract 7 0) (bvor ((_ zero_extend 24) ((_ extract 7 0) (bvand ((_ zero_extend 24) ((_ extract 7 0) (bvor ((_ zero_extend 24) |v_ULTIMATE.start_main_~var_576_arg_0~0#1_3|) .cse5))) .cse1))) ((_ zero_extend 24) |v_ULTIMATE.start_main_~var_577_arg_1~0#1_3|)))) .cse1))) ((_ zero_extend 24) |v_ULTIMATE.start_main_~var_578_arg_1~0#1_3|)))) .cse1)))))) .cse1))) ((_ zero_extend 24) ((_ extract 7 0) (bvand ((_ zero_extend 24) ((_ extract 7 0) (bvnot .cse9))) .cse1))))))))) .cse3))) .cse1))))))) .cse1)))))) .cse1))) ((_ zero_extend 24) ((_ extract 7 0) (bvand ((_ zero_extend 24) ((_ extract 7 0) (bvor ((_ zero_extend 24) |v_ULTIMATE.start_main_~var_590_arg_0~0#1_3|) .cse9))) .cse1))))))) .cse1)))))) .cse1))) ((_ zero_extend 24) ((_ extract 7 0) (bvand ((_ zero_extend 24) ((_ extract 7 0) (bvor .cse8 ((_ zero_extend 24) |v_ULTIMATE.start_main_~var_599_arg_0~0#1_3|)))) .cse1))))))))))))) .cse1)))))) .cse1))) ((_ zero_extend 24) |v_ULTIMATE.start_main_~var_1135_arg_1~0#1_3|)))) .cse1)))))) .cse1))) ((_ zero_extend 24) |v_ULTIMATE.start_main_~var_1136_arg_0~0#1_3|)))) .cse1))) ((_ zero_extend 24) |v_ULTIMATE.start_main_~var_1138_arg_1~0#1_3|)))) .cse1))))))) .cse1))) ((_ zero_extend 24) |v_ULTIMATE.start_main_~var_1140_arg_1~0#1_4|)))) .cse1)))))) .cse1)))))) .cse1))))))) .cse1))) (_ bv0 8)))))
(assert (not (= ((_ zero_extend 24) |ULTIMATE.start_main_~state_23~0#1|) ((_ zero_extend 24) |ULTIMATE.start_main_~var_166~0#1|))))
(check-sat)
(exit)
